424 5
10 10 10 10 10 

0 0 0 0 0 0 5 2 14 26 38 50 
0 0 0 0 0 0 5 3 4 7 8 10 
3 0 0 3 0 0 2 12 5 
8 0 0 9 0 0 2 12 9 
6 0 0 7 0 0 2 6 296 
1 0 0 8 0 0 1 9 
6 0 0 6 0 0 1 9 
2 0 0 10 0 0 1 9 
3 0 0 9 0 0 1 11 
1 0 0 7 0 0 1 11 
2 0 0 8 0 0 1 13 
6 0 0 8 0 0 1 13 
0 0 0 0 0 0 1 62 
0 0 0 0 0 0 3 15 17 143 
8 0 0 0 0 1 2 19 16 
3 0 0 0 0 10 2 20 18 
3 0 0 0 0 8 2 19 18 
10 0 0 0 0 5 2 22 21 
7 0 0 0 0 5 2 22 21 
8 0 0 0 0 10 2 22 21 
2 0 0 0 0 10 1 24 
10 0 0 0 0 8 1 23 
3 0 0 0 0 10 1 25 
7 0 0 0 0 8 1 25 
0 0 0 0 0 0 1 62 
0 0 0 0 0 0 3 27 30 31 
2 0 0 5 0 0 3 33 29 28 
9 0 0 9 0 0 1 32 
10 0 0 8 0 0 1 32 
7 0 0 10 0 0 1 32 
9 0 0 7 0 0 1 32 
10 0 0 10 0 0 3 36 34 65 
8 0 0 7 0 0 2 36 34 
6 0 0 10 0 0 1 35 
5 0 0 6 0 0 1 37 
5 0 0 3 0 0 1 37 
0 0 0 0 0 0 1 62 
0 0 0 0 0 0 5 39 43 44 48 383 
8 0 0 0 5 0 1 40 
10 0 0 0 7 0 2 46 41 
8 0 0 0 9 0 1 42 
10 0 0 0 10 0 1 45 
9 0 0 0 8 0 1 47 
2 0 0 0 7 0 1 46 
5 0 0 0 6 0 1 49 
10 0 0 0 5 0 1 49 
10 0 0 0 10 0 1 49 
8 0 0 0 8 0 1 49 
0 0 0 0 0 0 1 62 
0 0 0 0 0 0 4 51 54 56 60 
4 5 0 0 0 0 1 52 
1 7 0 0 0 0 1 53 
8 8 0 0 0 0 3 59 58 55 
6 5 0 0 0 0 2 58 55 
1 10 0 0 0 0 1 57 
6 10 0 0 0 0 2 57 312 
2 8 0 0 0 0 1 61 
6 7 0 0 0 0 1 61 
3 7 0 0 0 0 1 61 
5 8 0 0 0 0 1 61 
0 0 0 0 0 0 1 62 
0 0 0 0 0 0 5 63 75 87 99 111 
0 0 0 0 0 0 4 64 67 73 329 
6 0 0 0 2 0 2 72 65 
5 0 0 0 4 0 1 66 
7 0 0 0 10 0 3 71 70 68 
9 0 0 0 10 0 3 71 70 68 
5 0 0 0 6 0 1 69 
6 0 0 0 9 0 1 74 
1 0 0 0 10 0 1 74 
5 0 0 0 7 0 1 74 
7 0 0 0 10 0 1 74 
3 0 0 0 7 0 1 74 
0 0 0 0 0 0 1 123 
0 0 0 0 0 0 3 76 77 182 
4 0 0 0 1 0 1 78 
4 0 0 0 4 0 3 83 82 80 
2 0 0 0 8 0 1 79 
8 0 0 0 9 0 3 83 82 81 
5 0 0 0 8 0 1 81 
5 0 0 0 10 0 1 84 
3 0 0 0 10 0 1 85 
6 0 0 0 10 0 1 84 
10 0 0 0 5 0 1 86 
3 0 0 0 10 0 1 86 
0 0 0 0 0 0 1 123 
0 0 0 0 0 0 3 88 90 91 
8 0 0 0 0 4 2 94 89 
6 0 0 0 0 3 4 97 95 92 389 
3 0 0 0 0 5 2 96 94 
9 0 0 0 0 10 2 97 96 
4 0 0 0 0 10 1 93 
6 0 0 0 0 7 1 96 
8 0 0 0 0 8 1 97 
2 0 0 0 0 9 1 96 
1 0 0 0 0 10 1 98 
1 0 0 0 0 9 1 98 
0 0 0 0 0 0 1 123 
0 0 0 0 0 0 2 100 102 
9 3 0 0 0 0 2 104 101 
7 3 0 0 0 0 2 105 103 
5 10 0 0 0 0 1 103 
1 10 0 0 0 0 3 109 108 106 
5 8 0 0 0 0 3 108 106 396 
9 8 0 0 0 0 2 108 107 
7 8 0 0 0 0 1 107 
5 6 0 0 0 0 1 110 
5 9 0 0 0 0 1 110 
9 10 0 0 0 0 1 110 
0 0 0 0 0 0 1 123 
0 0 0 0 0 0 2 112 114 
9 1 0 0 0 0 1 113 
6 10 0 0 0 0 3 117 115 410 
1 10 0 0 0 0 1 116 
6 8 0 0 0 0 2 119 118 
8 9 0 0 0 0 2 119 118 
4 4 0 0 0 0 2 120 118 
1 9 0 0 0 0 1 121 
3 9 0 0 0 0 1 120 
3 6 0 0 0 0 1 122 
2 9 0 0 0 0 1 122 
0 0 0 0 0 0 1 123 
0 0 0 0 0 0 5 124 156 188 200 232 
0 0 0 0 0 0 3 125 126 132 
2 0 0 6 4 3 2 136 127 
3 0 0 10 7 9 2 136 127 
6 0 0 9 10 4 2 131 128 
6 0 0 7 10 8 2 134 129 
10 0 0 8 9 9 2 143 130 
6 0 0 5 8 9 2 140 133 
2 0 0 10 10 9 1 134 
10 0 0 7 5 8 4 149 143 142 137 
4 0 0 10 5 10 1 135 
8 0 0 8 7 10 1 135 
10 0 0 10 7 10 3 149 142 137 
8 0 0 7 7 5 2 143 138 
3 0 0 6 7 10 1 138 
10 0 0 5 7 10 2 146 139 
8 0 0 8 9 6 1 141 
1 0 0 8 5 7 1 141 
5 0 0 7 10 5 2 154 144 
10 0 0 9 10 9 2 154 144 
7 0 0 4 7 9 2 154 144 
1 0 0 5 7 6 2 148 145 
1 0 0 8 7 4 4 153 152 150 147 
2 0 0 10 7 4 2 150 147 
4 0 0 10 5 10 1 151 
6 0 0 6 6 9 1 150 
7 0 0 9 4 7 1 154 
2 0 0 4 10 8 1 155 
2 0 0 9 6 5 1 155 
3 0 0 10 10 6 1 155 
9 0 0 4 10 10 2 155 349 
6 0 0 6 9 6 1 155 
0 0 0 0 0 0 1 424 
0 0 0 0 0 0 3 157 158 186 
10 3 1 0 0 4 2 185 159 
2 9 4 0 0 10 2 185 159 
8 9 10 0 0 7 2 165 160 
8 5 8 0 0 7 2 169 161 
4 9 5 0 0 9 3 184 177 162 
8 4 8 0 0 5 1 163 
2 5 5 0 0 7 2 172 164 
3 6 8 0 0 10 2 183 166 
3 7 8 0 0 10 3 183 169 167 
4 10 6 0 0 6 2 176 167 
3 9 6 0 0 8 1 168 
5 10 10 0 0 7 2 182 170 
10 6 10 0 0 5 1 170 
5 10 4 0 0 10 1 171 
2 5 4 0 0 6 3 181 175 173 
8 10 10 0 0 9 4 181 180 179 178 
4 4 10 0 0 8 3 180 179 174 
1 8 7 0 0 10 1 178 
8 9 10 0 0 7 2 179 397 
3 9 9 0 0 7 1 178 
10 8 5 0 0 6 1 178 
2 8 8 0 0 7 1 187 
5 7 9 0 0 10 1 187 
1 10 8 0 0 6 1 187 
1 10 10 0 0 4 1 187 
7 8 7 0 0 5 1 187 
7 10 9 0 0 10 1 187 
4 6 10 0 0 8 1 187 
10 5 6 0 0 10 1 187 
5 6 10 0 0 7 1 187 
0 0 0 0 0 0 1 424 
0 0 0 0 0 0 4 189 192 195 198 
9 0 3 0 0 0 1 190 
9 0 10 0 0 0 1 191 
1 0 5 0 0 0 2 197 193 
5 0 7 0 0 0 2 194 414 
3 0 10 0 0 0 1 196 
8 0 6 0 0 0 1 196 
6 0 6 0 0 0 1 196 
3 0 9 0 0 0 1 199 
2 0 10 0 0 0 1 199 
8 0 9 0 0 0 1 199 
0 0 0 0 0 0 5 264 286 298 320 342 
0 0 0 0 0 0 3 201 209 230 
9 0 5 0 4 6 2 229 202 
7 0 9 0 5 7 2 227 203 
9 0 5 0 10 5 1 204 
2 0 7 0 8 3 3 226 224 205 
4 0 9 0 10 6 2 225 206 
1 0 8 0 7 7 3 223 222 207 
4 0 7 0 8 3 1 208 
8 0 8 0 10 6 2 221 210 
7 0 4 0 7 10 4 228 224 222 213 
4 0 3 0 7 10 1 211 
8 0 10 0 10 8 1 212 
4 0 8 0 10 10 2 220 213 
2 0 7 0 5 10 4 219 218 217 214 
8 0 8 0 4 10 1 215 
8 0 8 0 6 9 1 216 
5 0 10 0 8 10 1 231 
5 0 10 0 8 10 1 231 
1 0 8 0 10 9 1 231 
10 0 9 0 7 3 2 231 281 
8 0 10 0 9 8 1 231 
1 0 10 0 8 9 1 231 
7 0 10 0 9 10 1 231 
6 0 9 0 5 10 1 231 
4 0 7 0 4 4 1 231 
3 0 9 0 6 6 1 231 
4 0 3 0 8 9 1 231 
1 0 6 0 5 8 1 231 
6 0 7 0 10 7 1 231 
9 0 3 0 9 2 1 231 
1 0 8 0 8 10 1 231 
0 0 0 0 0 0 1 424 
0 0 0 0 0 0 3 233 240 262 
6 0 2 2 0 3 2 261 234 
7 0 5 6 0 5 2 259 235 
5 0 9 5 0 4 1 236 
4 0 4 10 0 9 3 258 256 237 
1 0 10 7 0 4 2 257 238 
1 0 9 7 0 9 3 255 254 239 
2 0 6 9 0 6 1 241 
9 0 7 6 0 3 6 260 256 254 253 252 245 
8 0 10 7 0 10 2 253 242 
3 0 9 9 0 4 1 243 
2 0 3 5 0 9 1 244 
3 0 10 10 0 6 2 252 245 
7 0 4 10 0 10 4 251 250 249 246 
8 0 9 10 0 10 1 247 
9 0 10 10 0 9 1 248 
5 0 10 5 0 10 1 263 
5 0 8 10 0 7 1 263 
1 0 10 7 0 7 1 263 
6 0 5 10 0 10 1 263 
7 0 6 10 0 7 1 263 
6 0 8 5 0 9 1 263 
10 0 6 6 0 10 1 263 
4 0 9 7 0 10 1 263 
2 0 6 5 0 9 1 263 
7 0 7 8 0 10 1 263 
2 0 10 9 0 9 1 263 
10 0 7 10 0 4 2 263 378 
7 0 6 10 0 6 1 263 
7 0 10 6 0 6 1 263 
3 0 10 4 0 10 1 263 
0 0 0 0 0 0 1 424 
0 0 0 0 0 0 9 265 277 278 279 280 281 282 283 284 
3 5 0 0 7 0 3 276 275 266 
4 9 0 0 6 0 1 267 
2 8 0 0 9 0 1 268 
10 8 0 0 10 0 1 269 
4 3 0 0 6 0 1 270 
8 8 0 0 6 0 1 271 
4 9 0 0 10 0 1 272 
10 5 0 0 9 0 2 273 349 
5 10 0 0 8 0 1 274 
8 9 0 0 7 0 1 285 
6 5 0 0 7 0 1 285 
3 7 0 0 8 0 1 285 
10 9 0 0 5 0 1 285 
6 7 0 0 4 0 1 285 
3 5 0 0 10 0 1 285 
2 10 0 0 10 0 1 285 
4 7 0 0 5 0 1 285 
6 10 0 0 5 0 1 285 
3 10 0 0 8 0 1 285 
9 6 0 0 10 0 1 285 
0 0 0 0 0 0 1 424 
0 0 0 0 0 0 4 287 289 290 296 
2 3 0 0 0 0 1 288 
5 8 0 0 0 0 3 295 294 291 
5 8 0 0 0 0 2 295 292 
7 8 0 0 0 0 3 294 293 417 
3 10 0 0 0 0 1 292 
9 6 0 0 0 0 1 293 
8 8 0 0 0 0 1 297 
3 8 0 0 0 0 1 297 
10 6 0 0 0 0 1 297 
7 10 0 0 0 0 1 297 
0 0 0 0 0 0 5 364 376 388 400 412 
0 0 0 0 0 0 1 299 
2 0 3 1 0 0 1 300 
4 0 4 9 0 0 2 302 301 
3 0 8 6 0 0 2 305 303 
7 0 6 7 0 0 1 303 
6 0 10 9 0 0 2 306 304 
8 0 6 10 0 0 3 309 308 307 
9 0 8 8 0 0 3 309 307 306 
9 0 7 6 0 0 3 313 311 310 
10 0 6 10 0 0 2 311 310 
10 0 10 7 0 0 2 313 311 
5 0 9 10 0 0 1 310 
10 0 10 10 0 0 2 314 312 
7 0 10 8 0 0 2 314 312 
5 0 10 10 0 0 3 318 315 408 
7 0 8 3 0 0 2 318 314 
6 0 10 9 0 0 2 317 316 
1 0 10 6 0 0 2 317 316 
10 0 6 5 0 0 1 319 
9 0 2 9 0 0 1 319 
1 0 7 7 0 0 1 319 
0 0 0 0 0 0 1 424 
0 0 0 0 0 0 5 321 330 338 339 340 
7 0 4 2 0 0 1 322 
6 0 5 9 0 0 3 337 336 323 
4 0 7 7 0 0 5 335 334 333 332 324 
4 0 9 6 0 0 1 325 
10 0 7 7 0 0 1 326 
10 0 10 9 0 0 1 327 
9 0 8 10 0 0 1 328 
2 0 6 6 0 0 1 329 
9 0 10 7 0 0 1 331 
6 0 6 9 0 0 1 332 
5 0 4 7 0 0 1 341 
4 0 10 10 0 0 1 341 
7 0 10 7 0 0 2 341 382 
9 0 6 7 0 0 1 341 
10 0 9 8 0 0 1 341 
4 0 6 8 0 0 1 341 
6 0 9 9 0 0 1 341 
2 0 4 10 0 0 1 341 
5 0 10 4 0 0 1 341 
4 0 10 8 0 0 1 341 
0 0 0 0 0 0 1 424 
0 0 0 0 0 0 7 343 357 358 359 360 361 362 
5 0 0 1 3 0 2 356 344 
1 0 0 6 3 0 1 345 
2 0 0 4 6 0 4 355 354 353 346 
3 0 0 9 4 0 1 347 
3 0 0 6 7 0 1 348 
1 0 0 10 10 0 2 349 398 
4 0 0 5 7 0 1 350 
1 0 0 10 7 0 1 351 
5 0 0 10 10 0 1 352 
3 0 0 8 8 0 1 363 
3 0 0 4 7 0 1 363 
1 0 0 10 8 0 1 363 
3 0 0 5 8 0 1 363 
3 0 0 10 8 0 1 363 
6 0 0 9 9 0 1 363 
8 0 0 10 10 0 1 363 
5 0 0 7 10 0 1 363 
1 0 0 7 9 0 1 363 
3 0 0 10 10 0 1 363 
6 0 0 9 6 0 1 363 
0 0 0 0 0 0 1 424 
0 0 0 0 0 0 3 365 367 405 
9 2 0 0 0 0 2 374 366 
4 10 0 0 0 0 4 373 372 371 368 
10 9 0 0 0 0 2 371 369 
5 8 0 0 0 0 1 369 
4 5 0 0 0 0 1 370 
7 8 0 0 0 0 1 375 
9 7 0 0 0 0 1 375 
2 8 0 0 0 0 1 375 
4 10 0 0 0 0 1 375 
9 8 0 0 0 0 1 375 
0 0 0 0 0 0 1 424 
0 0 0 0 0 0 3 377 380 386 
4 0 0 0 1 0 2 384 378 
2 0 0 0 10 0 2 385 379 
1 0 0 0 10 0 2 382 381 
3 0 0 0 7 0 2 384 382 
5 0 0 0 8 0 2 383 407 
6 0 0 0 9 0 1 387 
6 0 0 0 6 0 1 387 
8 0 0 0 8 0 1 387 
2 0 0 0 7 0 1 387 
4 0 0 0 9 0 1 387 
0 0 0 0 0 0 1 424 
0 0 0 0 0 0 4 389 390 394 398 
6 0 4 0 0 0 2 396 391 
8 0 8 0 0 0 2 397 392 
5 0 10 0 0 0 1 392 
5 0 6 0 0 0 1 393 
1 0 8 0 0 0 1 395 
5 0 8 0 0 0 1 396 
7 0 10 0 0 0 2 399 418 
3 0 9 0 0 0 1 399 
10 0 5 0 0 0 1 399 
8 0 7 0 0 0 1 399 
0 0 0 0 0 0 1 424 
0 0 0 0 0 0 4 401 404 406 414 
5 0 0 4 0 0 2 403 402 
8 0 0 10 0 0 2 408 405 
7 0 0 3 0 0 2 408 405 
2 0 0 10 0 0 3 410 408 407 
1 0 0 6 0 0 2 410 407 
4 0 0 10 0 0 1 407 
1 0 0 9 0 0 1 409 
1 0 0 5 0 0 1 409 
1 0 0 9 0 0 1 411 
2 0 0 9 0 0 1 411 
0 0 0 0 0 0 1 424 
0 0 0 0 0 0 1 413 
8 1 0 0 0 0 2 415 414 
8 10 0 0 0 0 3 419 417 416 
9 6 0 0 0 0 1 416 
4 9 0 0 0 0 2 422 418 
3 10 0 0 0 0 2 422 418 
6 4 0 0 0 0 2 421 420 
7 8 0 0 0 0 2 421 420 
9 8 0 0 0 0 1 423 
1 9 0 0 0 0 1 423 
8 10 0 0 0 0 1 423 
0 0 0 0 0 0 1 424 
0 0 0 0 0 0 0 
